Route 1: 0 98 80 99 65 43 52 74 45 0
Route 2: 0 28 57 58 87 59 95 34 50 22 27 0
Route 3: 0 70 76 66 63 85 62 20 36 0
Route 4: 0 44 7 97 5 68 17 60 64 41 35 90 40 0
Route 5: 0 94 38 9 1 2 15 54 31 71 89 49 79 0
Route 6: 0 6 92 72 8 14 77 0
Route 7: 0 24 73 69 3 25 91 67 53 30 100 0
Route 8: 0 23 88 37 42 83 11 32 47 19 0
Route 9: 0 93 18 61 33 46 12 10 16 82 56 78 81 0
Route 10: 0 13 21 84 75 51 86 29 4 39 96 48 55 0
Route 11: 0 26 0
